MARKOV
417
2 2 2 2 2 2 2 2 2 2 2 2 2 2 2 2 2 2 2 2 2 2 2 2 2 2 2 2 2 2 2 2 2 2 2 2 2 2 2 2 2 2 2 2 2 2 2 2 2 2 2 2 2 2 2 2 2 2 2 2 2 2 2 2 2 2 2 2 2 2 2 2 2 2 2 2 2 2 2 2 2 2 2 2 2 2 2 2 2 2 2 2 2 2 2 2 2 2 2 2 2 2 2 2 2 2 2 2 2 2 2 2 2 2 2 2 2 2 2 2 2 2 2 2 2 2 2 2 2 2 2 2 2 2 2 2 2 2 2 2 2 2 2 2 2 2 2 2 2 2 2 2 2 2 2 2 2 2 2 2 2 2 2 2 2 2 2 2 2 2 2 2 2 2 2 2 2 2 2 2 2 2 2 2 2 2 2 2 2 2 2 2 2 2 2 2 2 2 2 2 2 2 2 2 2 2 2 2 2 2 2 2 2 2 2 2 2 2 2 2 2 2 2 2 2 2 2 2 2 2 2 2 2 2 2 2 2 2 2 2 2 2 2 2 2 2 2 2 2 2 2 2 2 2 2 2 2 2 2 2 2 2 2 2 2 2 2 2 2 2 2 2 2 2 2 2 2 2 2 2 2 2 2 2 2 2 2 2 2 2 2 2 2 2 2 2 2 2 2 2 2 2 2 2 2 2 2 2 2 2 2 2 2 2 2 2 2 2 2 2 2 2 2 2 2 2 2 2 2 2 2 2 2 2 2 2 2 2 2 2 2 2 2 2 2 2 2 2 2 2 2 2 2 2 2 2 2 2 2 2 2 2 2 2 2 2 2 2 2 2 2 2 2 2 2 2 2 2 2 2 2 2 2 2 2 2 2 2 2 2 2 2 2 2 2 2 2 2 2 2 2 2 2 2 2 2 2 2 2 2 2 2 2 2 2 2 2
1060
2 416 413
2 415 412
2 414 411
2 413 409
2 412 408
2 411 407
2 410 406
4 409 405 335 282
4 408 404 334 279
4 407 403 333 276
2 406 398
2 405 397
2 405 104
2 404 396
2 404 103
2 403 395
2 403 158
2 402 394
2 401 393
2 400 392
2 399 391
4 398 390 336 285
2 397 50
2 397 389
2 396 50
2 396 388
2 395 50
2 395 387
2 394 301
2 394 386
2 393 384
2 392 383
2 391 382
2 390 381
2 390 105
2 389 380
2 389 379
3 389 50 397
2 388 378
2 388 377
3 388 50 396
2 387 376
2 387 375
3 387 50 395
3 386 367 249
3 386 301 394
2 385 374
5 384 373 342 294 218
5 383 372 340 291 217
4 382 371 338 288
2 381 50
2 381 370
2 380 281
2 380 369
2 379 369
2 379 281
2 378 278
2 378 368
2 377 368
2 377 278
2 376 275
2 376 367
2 375 367
2 375 275
2 374 363
2 373 362
2 373 109
2 372 361
2 372 107
2 371 360
2 371 106
2 370 359
2 370 358
3 370 50 381
3 369 364 310
3 369 281 380
4 368 365 330 307
3 368 278 378
5 367 366 332 331 304
3 367 275 376
5 366 353 258 255 252
4 365 353 258 255
3 364 353 258
5 363 357 344 297 219
2 362 50
2 362 356
2 361 50
2 361 355
2 360 50
2 360 354
2 359 284
2 359 353
2 358 353
2 358 284
2 357 351
2 357 111
2 356 350
2 356 349
3 356 50 362
2 355 348
2 355 347
3 355 50 361
2 354 346
2 354 345
3 354 50 360
3 353 352 313
3 353 284 359
3 352 337 261
2 351 50
2 351 343
2 350 293
2 350 341
2 349 341
2 349 293
2 348 290
2 348 339
2 347 339
2 347 290
2 346 287
2 346 337
2 345 337
2 345 287
2 344 326
2 344 325
2 343 324
2 343 323
3 343 50 351
2 342 321
2 342 320
3 341 322 298
3 341 293 350
2 340 318
2 340 317
4 339 327 319 299
3 339 290 348
2 338 315
2 338 314
5 337 329 328 316 300
3 337 287 346
2 336 312
2 336 311
2 335 309
2 335 308
2 334 306
2 334 305
2 333 303
2 333 302
4 332 283 255 252
3 331 280 252
3 330 283 255
4 329 295 267 264
3 328 292 264
3 327 295 267
2 326 52
2 326 295
2 325 51
2 325 296
2 324 57
2 324 296
2 323 296
2 323 57
2 322 295
2 321 52
2 321 292
2 320 51
2 320 293
2 319 292
2 318 52
2 318 289
2 317 51
2 317 290
2 316 289
2 315 52
2 315 286
2 314 51
2 314 287
2 313 286
2 312 52
2 312 283
2 311 51
2 311 284
2 310 283
2 309 52
2 309 280
2 308 51
2 308 281
2 307 280
2 306 52
2 306 277
2 305 51
2 305 278
2 304 277
2 303 52
2 303 274
2 302 51
2 302 275
2 301 274
5 300 270 267 264 57
4 299 270 267 57
3 298 270 57
2 297 271
2 297 112
3 296 57 324
3 296 51 325
2 296 269
2 296 270
2 295 269
3 295 52 326
2 294 268
2 294 110
3 293 51 320
2 293 266
2 293 267
2 292 266
3 292 52 321
2 291 265
2 291 108
3 290 51 317
2 290 263
2 290 264
2 289 263
3 289 52 318
2 288 262
2 288 216
3 287 51 314
2 287 260
2 287 261
2 286 260
3 286 52 315
2 285 259
2 285 215
3 284 51 311
2 284 257
2 284 258
2 283 257
3 283 52 312
2 282 256
2 282 214
3 281 51 308
2 281 254
2 281 255
2 280 254
3 280 52 309
2 279 253
2 279 213
3 278 51 305
2 278 251
2 278 252
2 277 251
3 277 52 306
2 276 250
2 276 212
3 275 51 302
2 275 248
2 275 249
2 274 248
3 274 52 303
2 273 247
2 273 245
2 272 246
2 272 234
2 271 53
2 271 242
3 270 269 296
3 270 47 242
3 269 242 47
2 268 53
2 268 241
3 267 266 293
3 267 46 241
3 266 241 46
2 265 53
2 265 240
3 264 263 290
3 264 45 240
3 263 240 45
2 262 53
2 262 239
3 261 260 287
3 261 44 239
3 260 239 44
2 259 53
2 259 238
3 258 257 284
3 258 43 238
3 257 238 43
2 256 53
2 256 237
3 255 254 281
3 255 42 237
3 254 237 42
2 253 53
2 253 236
3 252 251 278
3 252 41 236
3 251 236 41
2 250 53
2 250 235
3 249 248 275
3 249 40 235
3 248 235 40
2 247 243
2 247 244
2 246 232
2 246 233
2 245 230
2 245 231
3 244 243 247
2 244 231
2 243 230
3 242 229 185
3 242 53 271
2 242 270
3 241 228 184
3 241 53 268
2 241 267
3 240 227 183
3 240 53 265
2 240 264
3 239 226 182
3 239 53 262
2 239 261
3 238 225 199
3 238 53 259
2 238 258
3 237 224 197
3 237 53 256
2 237 255
3 236 223 195
3 236 53 253
2 236 252
3 235 222 193
3 235 53 250
2 235 249
2 234 220
2 234 221
3 233 232 246
2 233 221
2 232 220
3 231 230 245
3 231 211 210
3 230 209 208
2 229 207
2 229 206
2 228 205
2 228 204
2 227 203
2 227 202
2 226 201
2 226 200
2 225 198
2 225 91
2 224 196
2 224 90
2 223 194
2 223 89
2 222 192
2 222 87
3 221 220 234
3 221 191 190
3 220 189 188
3 219 169 47
3 218 169 46
3 217 169 45
2 216 44
2 216 169
2 215 43
2 215 169
2 214 42
2 214 169
2 213 41
2 213 169
2 212 40
2 212 169
3 211 48 187
3 210 187 48
3 209 31 186
3 208 186 31
2 207 30
2 207 172
2 206 38
2 206 181
2 205 29
2 205 172
2 204 36
2 204 181
2 203 28
2 203 172
2 202 35
2 202 181
2 201 27
2 201 172
2 200 34
2 200 181
2 199 180
2 199 179
2 198 26
2 198 172
2 197 178
2 197 177
2 196 25
2 196 172
2 195 176
2 195 175
2 194 24
2 194 172
2 193 174
2 193 173
2 192 23
2 192 172
3 191 32 171
3 190 171 32
3 189 31 170
3 188 170 31
2 187 168
2 187 157
2 187 211
2 186 167
2 186 154
2 186 209
3 185 132 164
3 184 132 164
3 183 132 164
3 182 132 164
3 181 166 0
3 181 38 206
3 181 36 204
3 181 35 202
3 181 34 200
2 180 88
2 180 163
2 179 38
2 179 162
2 178 88
2 178 163
2 177 36
2 177 162
2 176 88
2 176 163
2 175 35
2 175 162
2 174 88
2 174 163
2 173 34
2 173 162
3 172 165 151
3 172 30 207
3 172 29 205
3 172 28 203
3 172 27 201
3 172 26 198
3 172 25 196
3 172 24 194
3 172 23 192
2 171 161
2 171 150
2 171 191
2 170 160
2 170 147
2 170 189
2 169 159
3 169 44 216
3 169 43 215
3 169 42 214
3 169 41 213
3 169 40 212
2 168 155
2 168 156
2 167 152
2 167 153
4 166 139 92 3
5 165 139 133 39 10
4 164 139 69 9
2 164 182
2 164 183
2 164 184
2 164 185
3 163 88 174
3 163 88 176
3 163 88 178
3 163 88 180
2 163 3
2 163 69
2 163 139
3 162 38 179
3 162 36 177
3 162 35 175
3 162 34 173
2 162 9
2 162 92
2 162 139
2 161 148
2 161 149
2 160 145
2 160 146
2 159 141
2 158 49
2 158 132
2 157 136
2 157 137
3 156 155 168
2 156 137
2 155 136
2 154 134
2 154 135
3 153 152 167
2 153 135
2 152 134
3 151 123 118
2 150 130
2 150 131
3 149 148 161
2 149 131
2 148 130
2 147 128
2 147 129
3 146 145 160
2 146 129
2 145 128
2 144 126
2 143 121
2 142 120
2 141 13
2 141 119
2 140 117
2 139 116
4 139 92 9 162
4 139 69 3 163
3 138 61 114
3 137 136 157
3 137 102 101
3 136 100 99
3 135 134 154
3 135 98 97
3 134 96 95
2 133 94
2 133 93
2 132 88
3 132 49 158
2 132 182
2 132 183
2 132 184
2 132 185
3 131 130 150
3 131 86 85
3 130 84 83
3 129 128 147
3 129 82 81
3 128 80 79
2 127 22
2 127 78
3 126 78 21
2 125 76
2 124 75
2 123 74
2 122 73
3 121 65 68
3 120 65 67
2 119 66
2 119 65
3 119 13 141
2 118 64
2 117 63
2 116 63
3 115 61 62
2 114 62
2 114 138
2 113 60
2 112 54
2 112 58
2 111 29
2 111 49
2 110 54
2 110 56
2 109 28
2 109 49
2 108 54
2 108 55
2 107 27
2 107 49
2 106 26
2 106 49
2 105 25
2 105 49
2 104 24
2 104 49
2 103 23
2 103 49
3 102 46 47
3 101 47 46
3 100 44 45
3 99 45 44
3 98 42 43
3 97 43 42
3 96 40 41
3 95 41 40
2 94 3
2 94 7
2 93 7
2 93 3
3 92 39 10
2 91 33
2 91 37
2 90 3
2 90 33
2 89 8
2 89 33
2 88 59
2 87 1
2 87 33
3 86 29 30
3 85 30 29
3 84 27 28
3 83 28 27
3 82 25 26
3 81 26 25
3 80 23 24
3 79 24 23
3 78 22 127
3 78 19 20
2 77 17
2 77 18
2 76 6
2 76 7
2 76 10
2 75 6
2 75 10
2 75 16
2 74 7
2 74 10
2 74 15
2 73 10
2 73 15
2 73 16
2 72 5
2 72 6
2 72 7
2 71 5
2 71 6
2 71 16
2 70 5
2 70 7
2 70 15
2 69 5
2 69 15
2 69 16
4 68 14 11 10
2 68 121
3 67 11 5
2 67 120
5 66 12 11 10 7
5 65 9 2 1 0
2 65 120
2 65 121
5 64 8 3 1 0
2 63 0
2 63 4
2 63 8
2 62 5
2 62 6
2 62 7
2 62 115
5 61 4 3 2 0
2 61 115
2 61 138
5 60 3 2 1 0
3 58 54 112
3 56 54 110
3 55 54 108
3 49 29 111
3 49 28 109
3 49 27 107
3 49 26 106
3 49 25 105
3 49 24 104
3 49 23 103
2 48 211
2 47 102
2 47 270
2 46 102
2 46 267
2 45 100
2 45 264
2 44 100
2 44 261
2 43 98
2 43 258
2 42 98
2 42 255
2 41 96
2 41 252
2 40 96
2 40 249
3 37 33 91
3 33 8 89
3 33 3 90
3 33 1 87
2 32 191
2 31 189
2 31 209
2 30 86
2 29 86
2 28 84
2 27 84
2 26 82
2 25 82
2 24 80
2 23 80
2 20 78
2 19 78
3 18 17 77
4 16 15 10 73
4 16 15 5 69
4 16 10 6 75
4 16 6 5 71
4 15 10 7 74
4 15 7 5 70
4 10 7 6 76
4 8 4 0 63
4 7 6 5 62
4 7 6 5 72
3 7 3 94
2 0 60
2 0 61
2 0 64
2 0 65
2 0 181
2 1 60
2 1 64
2 1 65
2 2 60
2 2 61
2 2 65
3 3 7 93
2 3 60
2 3 61
2 3 64
2 3 166
2 4 61
2 5 67
2 7 66
2 8 64
2 9 65
2 9 164
2 10 66
2 10 68
2 10 92
2 10 165
2 11 66
2 11 67
2 11 68
2 12 66
2 14 68
2 21 126
2 23 79
2 24 79
2 25 81
2 26 81
2 27 83
2 28 83
2 29 85
2 30 85
2 31 188
2 31 208
2 32 190
2 39 92
2 39 165
2 40 95
2 40 248
2 41 95
2 41 251
2 42 97
2 42 254
2 43 97
2 43 257
2 44 99
2 44 260
2 45 99
2 45 217
2 45 263
2 46 101
2 46 218
2 46 266
2 47 101
2 47 219
2 47 269
2 48 210
3 57 296 323
2 57 298
2 57 299
2 57 300
2 59 88
2 60 113
2 62 114
2 63 116
2 63 117
2 64 118
3 65 66 119
2 69 164
2 73 122
2 74 123
2 75 124
2 76 125
2 78 126
2 79 128
2 80 128
2 81 129
2 82 129
2 83 130
2 84 130
2 85 131
2 86 131
3 87 192 222
2 88 132
3 89 194 223
3 90 196 224
3 91 198 225
2 92 166
3 93 94 133
2 95 134
2 96 134
2 97 135
2 98 135
2 99 136
2 100 136
2 101 137
2 102 137
3 103 396 404
3 104 397 405
3 105 381 390
3 106 360 371
3 107 361 372
3 108 265 291
3 109 362 373
3 110 268 294
3 111 351 357
3 112 271 297
2 116 139
2 117 140
2 118 151
2 120 142
2 121 143
2 123 151
2 126 144
2 128 145
2 129 146
2 130 148
2 131 149
2 133 165
2 134 152
2 135 153
2 136 155
2 137 156
2 139 164
2 139 165
2 139 166
2 141 159
3 147 160 170
3 150 161 171
2 151 172
3 154 167 186
3 157 168 187
3 158 395 403
2 159 169
2 165 172
2 166 181
2 169 217
2 169 218
2 169 219
2 170 188
2 171 190
3 173 174 193
3 175 176 195
3 177 178 197
3 179 180 199
2 182 239
2 183 240
2 184 241
2 185 242
2 186 208
2 187 210
2 188 220
2 189 220
2 190 221
2 191 221
2 193 235
2 195 236
2 197 237
2 199 238
3 200 201 226
3 202 203 227
3 204 205 228
3 206 207 229
2 208 230
2 209 230
2 210 231
2 211 231
3 212 250 276
3 213 253 279
3 214 256 282
3 215 259 285
3 216 262 288
2 217 383
2 218 384
2 219 363
2 220 232
2 221 233
2 222 235
2 223 236
2 224 237
2 225 238
2 226 239
2 227 240
2 228 241
2 229 242
2 230 243
2 231 244
3 234 246 272
2 235 248
2 236 251
2 237 254
2 238 257
2 239 260
2 240 263
2 241 266
2 242 269
3 245 247 273
2 248 274
2 249 386
2 251 277
2 252 331
2 252 332
2 252 366
2 254 280
2 255 330
2 255 332
2 255 365
2 255 366
2 257 283
2 258 364
2 258 365
2 258 366
2 260 286
2 261 352
2 263 289
2 264 300
2 264 328
2 264 329
2 266 292
2 267 299
2 267 300
2 267 327
2 267 329
2 269 295
2 270 298
2 270 299
2 270 300
2 274 301
3 275 367 375
2 276 407
2 277 304
3 278 368 377
2 279 408
2 280 307
2 280 331
3 281 369 379
2 282 409
2 283 310
2 283 330
2 283 332
3 284 353 358
2 285 398
2 286 313
3 287 337 345
2 288 382
2 289 316
3 290 339 347
2 291 383
2 292 319
2 292 328
3 293 341 349
2 294 384
2 295 322
2 295 327
2 295 329
2 297 363
2 298 341
2 299 339
2 300 337
3 302 303 333
2 304 367
3 305 306 334
2 307 368
3 308 309 335
2 310 369
3 311 312 336
2 313 353
3 314 315 338
2 316 337
3 317 318 340
2 319 339
3 320 321 342
2 322 341
3 323 324 343
3 325 326 344
2 327 339
2 328 337
2 329 337
2 330 368
2 331 367
2 332 367
2 333 407
2 334 408
2 335 409
2 336 398
2 337 352
2 338 382
2 340 383
2 342 384
2 344 363
3 345 346 354
3 347 348 355
3 349 350 356
2 352 353
2 353 364
2 353 365
2 353 366
2 357 363
3 358 359 370
2 363 374
2 364 369
2 365 368
2 366 367
2 367 386
2 371 382
2 372 383
2 373 384
2 374 385
3 375 376 387
3 377 378 388
3 379 380 389
2 382 391
2 383 392
2 384 393
2 390 398
2 391 399
2 392 400
2 393 401
2 394 402
2 398 406
2 403 407
2 404 408
2 405 409
2 406 410
2 407 411
2 408 412
2 409 413
2 411 414
2 412 415
2 413 416
4
1 1 1 0
4
1 1 1 0
4
1 1 1 0
4
1 1 1 0
4
1 1 1 0
4
1 1 1 0
4
1 1 1 0
16
1 1 1 1 1 1 1 1 1 1 1 1 1 1 1 0
16
1 1 1 1 1 1 1 1 1 1 1 1 1 1 1 0
16
1 1 1 1 1 1 1 1 1 1 1 1 1 1 1 0
4
1 1 1 0
4
1 1 1 0
4
1 1 1 0
4
1 1 1 0
4
1 1 1 0
4
1 1 1 0
4
1 1 1 0
4
1 1 1 0
4
1 1 1 0
4
1 1 1 0
4
1 1 1 0
16
1 1 1 1 1 1 1 1 1 1 1 1 1 1 1 0
4
1 1 0 1
4
1 1 0 1
4
1 1 0 1
4
1 1 0 1
4
1 1 0 1
4
1 1 0 1
4
1 1 0 1
4
1 1 0 1
4
1 1 1 0
4
1 1 1 0
4
1 1 1 0
4
1 1 1 0
4
1 1 1 0
4
1 1 1 0
4
1 1 1 0
8
1 1 1 1 1 1 0 1
4
1 1 1 0
4
1 1 1 0
8
1 1 1 1 1 1 0 1
4
1 1 1 0
4
1 1 1 0
8
1 1 1 1 1 1 0 1
8
1 1 1 1 1 1 1 0
8
1 1 1 1 1 1 0 1
4
1 1 1 0
32
1 1 1 1 1 1 1 1 1 1 1 1 1 1 1 1 1 1 1 1 1 1 1 1 1 1 1 1 1 1 1 0
32
1 1 1 1 1 1 1 1 1 1 1 1 1 1 1 1 1 1 1 1 1 1 1 1 1 1 1 1 1 1 1 0
16
1 1 1 1 1 1 1 1 1 1 1 1 1 1 1 0
4
1 1 0 1
4
1 1 0 1
4
1 1 0 1
4
1 1 0 1
4
1 1 1 0
4
1 1 1 0
4
1 1 0 1
4
1 1 0 1
4
1 1 1 0
4
1 1 1 0
4
1 1 0 1
4
1 1 0 1
4
1 1 1 0
4
1 1 1 0
4
1 1 1 0
4
1 1 1 0
4
1 1 1 0
4
1 1 1 0
4
1 1 1 0
4
1 1 1 0
4
1 1 1 0
4
1 1 1 0
4
1 1 1 0
8
1 1 1 1 1 1 0 1
8
1 1 1 1 1 1 1 0
8
1 1 1 1 1 1 0 1
16
1 1 1 1 1 1 1 1 1 1 1 1 1 1 1 0
8
1 1 1 1 1 1 0 1
32
1 1 1 1 1 1 1 1 1 1 1 1 1 1 1 1 1 1 1 1 1 1 1 1 1 1 1 1 1 1 1 0
8
1 1 1 1 1 1 0 1
32
1 1 1 1 1 1 1 1 1 1 1 1 1 1 1 1 1 1 1 1 1 1 1 1 1 1 1 1 1 1 1 0
16
1 1 1 1 1 1 1 1 1 1 1 1 1 1 1 0
8
1 1 1 1 1 1 1 0
32
1 1 1 1 1 1 1 1 1 1 1 1 1 1 1 1 1 1 1 1 1 1 1 1 1 1 1 1 1 1 1 0
4
1 1 0 1
4
1 1 0 1
4
1 1 0 1
4
1 1 0 1
4
1 1 0 1
4
1 1 0 1
4
1 1 0 1
4
1 1 0 1
4
1 1 1 0
4
1 1 1 0
4
1 1 1 0
4
1 1 1 0
4
1 1 1 0
4
1 1 1 0
8
1 1 1 1 1 1 0 1
4
1 1 1 0
4
1 1 1 0
8
1 1 1 1 1 1 0 1
4
1 1 1 0
4
1 1 1 0
8
1 1 1 1 1 1 0 1
8
1 1 1 1 1 1 1 0
8
1 1 1 1 1 1 0 1
8
1 1 1 1 1 1 1 0
4
1 1 0 1
4
1 1 0 1
4
1 1 0 1
4
1 1 0 1
4
1 1 1 0
4
1 1 1 0
4
1 1 0 1
4
1 1 0 1
4
1 1 1 0
4
1 1 1 0
4
1 1 0 1
4
1 1 0 1
4
1 1 1 0
4
1 1 1 0
4
1 1 1 0
4
1 1 1 0
4
1 1 1 0
4
1 1 1 0
8
1 1 1 1 1 1 0 1
4
1 1 1 0
4
1 1 1 0
8
1 1 1 1 1 1 1 0
8
1 1 1 1 1 1 0 1
4
1 1 1 0
4
1 1 1 0
16
1 1 1 1 1 1 1 1 1 1 1 1 1 1 1 0
8
1 1 1 1 1 1 0 1
4
1 1 1 0
4
1 1 1 0
32
1 1 1 1 1 1 1 1 1 1 1 1 1 1 1 1 1 1 1 1 1 1 1 1 1 1 1 1 1 1 1 0
8
1 1 1 1 1 1 0 1
4
1 1 1 0
4
1 1 1 0
4
1 1 1 0
4
1 1 1 0
4
1 1 1 0
4
1 1 1 0
4
1 1 1 0
4
1 1 1 0
16
1 1 1 1 1 1 1 1 1 1 1 1 1 1 1 0
8
1 1 1 1 1 1 1 0
8
1 1 1 1 1 1 1 0
16
1 1 1 1 1 1 1 1 1 1 1 1 1 1 1 0
8
1 1 1 1 1 1 1 0
8
1 1 1 1 1 1 1 0
4
1 1 0 1
4
1 1 0 1
4
1 1 0 1
4
1 1 0 1
4
1 1 0 1
4
1 1 0 1
4
1 1 1 0
4
1 1 1 0
4
1 1 1 0
4
1 1 0 1
4
1 1 0 1
4
1 1 0 1
4
1 1 0 1
4
1 1 1 0
4
1 1 0 1
4
1 1 0 1
4
1 1 0 1
4
1 1 0 1
4
1 1 1 0
4
1 1 0 1
4
1 1 0 1
4
1 1 0 1
4
1 1 0 1
4
1 1 1 0
4
1 1 0 1
4
1 1 0 1
4
1 1 0 1
4
1 1 0 1
4
1 1 1 0
4
1 1 0 1
4
1 1 0 1
4
1 1 0 1
4
1 1 0 1
4
1 1 1 0
4
1 1 0 1
4
1 1 0 1
4
1 1 0 1
4
1 1 0 1
4
1 1 1 0
4
1 1 0 1
4
1 1 0 1
4
1 1 0 1
4
1 1 0 1
4
1 1 1 0
32
1 1 1 1 1 1 1 1 1 1 1 1 1 1 1 1 1 1 1 1 1 1 1 1 1 1 1 1 1 1 1 0
16
1 1 1 1 1 1 1 1 1 1 1 1 1 1 1 0
8
1 1 1 1 1 1 1 0
4
1 1 1 0
4
1 1 1 0
8
1 1 1 1 1 1 0 1
8
1 1 1 1 1 1 0 1
4
1 1 0 1
4
1 1 0 1
4
1 1 1 0
8
1 1 1 1 1 1 0 1
4
1 1 1 0
4
1 1 1 0
8
1 1 1 1 1 1 0 1
4
1 1 0 1
4
1 1 0 1
4
1 1 1 0
8
1 1 1 1 1 1 0 1
4
1 1 1 0
4
1 1 1 0
8
1 1 1 1 1 1 0 1
4
1 1 0 1
4
1 1 0 1
4
1 1 1 0
8
1 1 1 1 1 1 0 1
4
1 1 1 0
4
1 1 1 0
8
1 1 1 1 1 1 0 1
4
1 1 0 1
4
1 1 0 1
4
1 1 1 0
8
1 1 1 1 1 1 0 1
4
1 1 1 0
4
1 1 1 0
8
1 1 1 1 1 1 0 1
4
1 1 0 1
4
1 1 0 1
4
1 1 1 0
8
1 1 1 1 1 1 0 1
4
1 1 1 0
4
1 1 1 0
8
1 1 1 1 1 1 0 1
4
1 1 0 1
4
1 1 0 1
4
1 1 1 0
8
1 1 1 1 1 1 0 1
4
1 1 1 0
4
1 1 1 0
8
1 1 1 1 1 1 0 1
4
1 1 0 1
4
1 1 0 1
4
1 1 1 0
8
1 1 1 1 1 1 0 1
4
1 1 1 0
4
1 1 1 0
8
1 1 1 1 1 1 0 1
4
1 1 0 1
4
1 1 0 1
4
1 1 1 0
8
1 1 1 1 1 1 0 1
4
1 1 1 0
4
1 1 1 0
4
1 1 1 0
4
1 1 1 0
4
1 1 0 1
4
1 1 0 1
8
1 1 1 1 1 1 0 1
8
1 1 1 1 0 1 1 1
8
1 1 1 1 1 1 1 0
4
1 1 0 1
4
1 1 0 1
8
1 1 1 1 1 1 0 1
8
1 1 1 1 0 1 1 1
8
1 1 1 1 1 1 1 0
4
1 1 0 1
4
1 1 0 1
8
1 1 1 1 1 1 0 1
8
1 1 1 1 0 1 1 1
8
1 1 1 1 1 1 1 0
4
1 1 0 1
4
1 1 0 1
8
1 1 1 1 1 1 0 1
8
1 1 1 1 0 1 1 1
8
1 1 1 1 1 1 1 0
4
1 1 0 1
4
1 1 0 1
8
1 1 1 1 1 1 0 1
8
1 1 1 1 0 1 1 1
8
1 1 1 1 1 1 1 0
4
1 1 0 1
4
1 1 0 1
8
1 1 1 1 1 1 0 1
8
1 1 1 1 0 1 1 1
8
1 1 1 1 1 1 1 0
4
1 1 0 1
4
1 1 0 1
8
1 1 1 1 1 1 0 1
8
1 1 1 1 0 1 1 1
8
1 1 1 1 1 1 1 0
4
1 1 0 1
4
1 1 0 1
8
1 1 1 1 1 1 0 1
8
1 1 1 1 0 1 1 1
8
1 1 1 1 1 1 1 0
4
1 1 0 1
4
1 1 0 1
4
1 1 0 1
4
1 1 0 1
4
1 1 0 1
4
1 1 0 1
8
1 1 1 1 1 1 0 1
4
1 1 1 0
4
1 1 1 0
8
1 1 1 1 1 1 1 0
8
1 1 1 1 1 1 0 1
4
1 1 0 1
8
1 1 1 1 1 1 1 0
8
1 1 1 1 1 1 0 1
4
1 1 0 1
8
1 1 1 1 1 1 1 0
8
1 1 1 1 1 1 0 1
4
1 1 0 1
8
1 1 1 1 1 1 1 0
8
1 1 1 1 1 1 0 1
4
1 1 0 1
8
1 1 1 1 1 1 1 0
8
1 1 1 1 1 1 0 1
4
1 1 0 1
8
1 1 1 1 1 1 1 0
8
1 1 1 1 1 1 0 1
4
1 1 0 1
8
1 1 1 1 1 1 1 0
8
1 1 1 1 1 1 0 1
4
1 1 0 1
8
1 1 1 1 1 1 1 0
8
1 1 1 1 1 1 0 1
4
1 1 0 1
4
1 1 0 1
4
1 1 0 1
8
1 1 1 1 1 1 0 1
4
1 1 1 0
4
1 1 1 0
8
1 1 1 1 1 1 0 1
8
1 1 1 1 1 1 1 0
8
1 1 1 1 1 1 1 0
4
1 1 1 0
4
1 1 1 0
4
1 1 1 0
4
1 1 1 0
4
1 1 1 0
4
1 1 1 0
4
1 1 1 0
4
1 1 1 0
4
1 1 1 0
4
1 1 1 0
4
1 1 1 0
4
1 1 1 0
4
1 1 1 0
4
1 1 1 0
4
1 1 1 0
4
1 1 1 0
8
1 1 1 1 1 1 0 1
8
1 1 1 1 1 1 1 0
8
1 1 1 1 1 1 1 0
8
1 1 1 1 1 1 1 0
8
1 1 1 1 1 1 1 0
8
1 1 1 1 1 1 1 0
4
1 1 0 1
4
1 1 0 1
4
1 1 0 1
4
1 1 0 1
4
1 1 0 1
4
1 1 0 1
4
1 1 0 1
4
1 1 0 1
4
1 1 0 1
4
1 1 0 1
8
1 1 1 1 0 1 1 1
8
1 1 1 1 1 1 1 0
8
1 1 1 1 0 1 1 1
8
1 1 1 1 1 1 1 0
4
1 1 0 1
4
1 1 0 1
4
1 1 0 1
4
1 1 0 1
4
1 1 0 1
4
1 1 0 1
4
1 1 0 1
4
1 1 0 1
4
1 1 0 1
4
1 1 0 1
4
1 1 0 1
4
1 1 0 1
4
1 1 0 1
4
1 1 0 1
4
1 1 0 1
4
1 1 0 1
4
1 1 1 0
4
1 1 1 0
4
1 1 0 1
4
1 1 0 1
4
1 1 1 0
4
1 1 1 0
4
1 1 0 1
4
1 1 0 1
4
1 1 1 0
4
1 1 1 0
4
1 1 0 1
4
1 1 0 1
4
1 1 1 0
4
1 1 1 0
4
1 1 0 1
4
1 1 0 1
8
1 1 1 1 0 1 1 1
8
1 1 1 1 1 1 1 0
8
1 1 1 1 0 1 1 1
8
1 1 1 1 1 1 1 0
4
1 1 1 0
4
1 1 1 0
4
1 1 0 1
4
1 1 1 0
4
1 1 1 0
4
1 1 0 1
8
1 1 1 1 0 1 1 1
8
1 1 1 1 0 1 1 1
8
1 1 1 1 0 1 1 1
8
1 1 1 1 0 1 1 1
8
1 1 1 1 1 1 1 0
8
1 1 1 1 1 1 0 1
8
1 1 1 1 1 1 0 1
8
1 1 1 1 1 1 0 1
8
1 1 1 1 1 1 0 1
4
1 1 0 1
4
1 1 0 1
4
1 1 0 1
4
1 1 0 1
4
1 1 0 1
4
1 1 0 1
4
1 1 0 1
4
1 1 0 1
4
1 1 0 1
4
1 1 0 1
4
1 1 0 1
4
1 1 0 1
4
1 1 0 1
4
1 1 0 1
4
1 1 0 1
4
1 1 0 1
8
1 1 1 1 1 1 1 0
8
1 1 1 1 1 1 0 1
8
1 1 1 1 1 1 0 1
8
1 1 1 1 1 1 0 1
8
1 1 1 1 1 1 0 1
8
1 1 1 1 1 1 0 1
8
1 1 1 1 1 1 0 1
8
1 1 1 1 1 1 0 1
8
1 1 1 1 1 1 0 1
4
1 1 1 0
4
1 1 1 0
4
1 1 0 1
4
1 1 1 0
4
1 1 1 0
4
1 1 0 1
4
1 1 1 0
8
1 1 1 1 1 1 0 1
8
1 1 1 1 1 1 0 1
8
1 1 1 1 1 1 0 1
8
1 1 1 1 1 1 0 1
8
1 1 1 1 1 1 0 1
4
1 1 0 1
4
1 1 0 1
4
1 1 0 1
4
1 1 0 1
16
1 1 1 1 1 1 1 1 1 1 1 1 1 1 1 0
32
1 1 1 1 1 1 1 1 1 1 1 1 1 1 1 1 1 1 1 1 1 1 1 1 1 1 1 1 1 1 1 0
16
1 1 1 1 1 1 1 1 1 1 1 1 1 1 1 0
4
1 1 0 1
4
1 1 0 1
4
1 1 0 1
4
1 1 0 1
8
1 1 1 1 1 1 0 1
8
1 1 1 1 1 1 0 1
8
1 1 1 1 1 1 0 1
8
1 1 1 1 1 1 0 1
4
1 1 0 1
4
1 1 0 1
4
1 1 0 1
8
1 1 1 1 1 1 0 1
8
1 1 1 1 1 1 0 1
8
1 1 1 1 1 1 0 1
8
1 1 1 1 1 1 0 1
4
1 1 0 1
4
1 1 0 1
4
1 1 0 1
4
1 1 0 1
4
1 1 0 1
4
1 1 0 1
4
1 1 0 1
4
1 1 1 0
4
1 1 0 1
4
1 1 0 1
4
1 1 0 1
4
1 1 0 1
8
1 1 1 1 1 1 0 1
4
1 1 1 0
4
1 1 1 0
4
1 1 0 1
4
1 1 0 1
8
1 1 1 1 1 1 0 1
4
1 1 1 0
4
1 1 1 0
8
1 1 1 1 1 1 1 0
4
1 1 0 1
4
1 1 0 1
8
1 1 1 1 1 1 0 1
4
1 1 1 0
4
1 1 1 0
4
1 1 0 1
4
1 1 0 1
8
1 1 1 1 1 1 0 1
4
1 1 1 0
4
1 1 1 0
4
1 1 1 0
4
1 1 1 0
4
1 1 1 0
4
1 1 0 1
4
1 1 0 1
4
1 1 1 0
4
1 1 1 0
16
1 1 1 1 1 1 1 1 1 1 1 1 1 1 0 1
16
1 1 1 1 1 1 1 1 1 1 1 1 1 1 0 1
8
1 1 1 1 0 1 1 1
8
1 1 1 1 1 1 0 1
8
1 1 1 1 1 1 1 0
8
1 1 1 1 1 1 1 0
8
1 1 1 1 1 1 0 1
8
1 1 1 1 1 1 1 0
8
1 1 1 1 1 1 1 0
4
1 1 1 0
4
1 1 1 0
4
1 1 1 0
8
1 1 1 1 1 1 0 1
4
1 1 0 1
4
1 1 0 1
4
1 1 0 1
4
1 1 0 1
8
1 1 1 1 1 1 0 1
8
1 1 1 1 1 1 1 0
8
1 1 1 1 1 1 1 0
8
1 1 1 1 1 1 0 1
8
1 1 1 1 1 1 1 0
8
1 1 1 1 1 1 1 0
4
1 1 0 1
4
1 1 0 1
8
1 1 1 1 1 1 1 0
4
1 1 1 0
4
1 1 1 0
4
1 1 1 0
4
1 1 1 0
8
1 1 1 1 0 1 1 1
8
1 1 1 1 0 1 1 1
4
1 1 1 0
4
1 1 1 0
8
1 1 1 1 1 1 0 1
4
1 1 1 0
4
1 1 1 0
4
1 1 1 0
8
1 1 1 1 0 1 1 1
4
1 1 1 0
4
1 1 0 1
4
1 1 1 0
4
1 1 0 1
4
1 1 0 1
4
1 1 0 1
4
1 1 0 1
4
1 1 0 1
4
1 1 0 1
4
1 1 0 1
4
1 1 0 1
4
1 1 0 1
4
1 1 0 1
4
1 1 0 1
4
1 1 0 1
4
1 1 0 1
4
1 1 0 1
4
1 1 0 1
4
1 1 0 1
4
1 1 0 1
4
1 1 0 1
4
1 1 0 1
4
1 1 0 1
8
1 1 1 1 0 1 1 1
8
1 1 1 1 1 1 1 0
8
1 1 1 1 0 1 1 1
8
1 1 1 1 1 1 1 0
8
1 1 1 1 0 1 1 1
8
1 1 1 1 1 1 1 0
8
1 1 1 1 0 1 1 1
8
1 1 1 1 1 1 1 0
4
1 1 0 1
4
1 1 0 1
4
1 1 1 0
4
1 1 1 0
8
1 1 1 1 1 1 1 0
4
1 1 0 1
4
1 1 0 1
4
1 1 0 1
4
1 1 0 1
4
1 1 0 1
4
1 1 0 1
4
1 1 1 0
4
1 1 0 1
4
1 1 0 1
8
1 1 1 1 0 1 1 1
8
1 1 1 1 1 1 1 0
8
1 1 1 1 0 1 1 1
8
1 1 1 1 1 1 1 0
8
1 1 1 1 0 1 1 1
8
1 1 1 1 1 1 1 0
8
1 1 1 1 0 1 1 1
8
1 1 1 1 1 1 1 0
8
1 1 1 1 1 1 0 1
8
1 1 1 1 0 1 1 1
4
1 1 0 1
4
1 1 0 1
4
1 1 0 1
4
1 1 0 1
4
1 1 0 1
4
1 1 0 1
4
1 1 0 1
4
1 1 0 1
4
1 1 0 1
4
1 1 0 1
4
1 1 0 1
4
1 1 0 1
4
1 1 0 1
4
1 1 0 1
4
1 1 0 1
4
1 1 0 1
4
1 1 0 1
4
1 1 0 1
4
1 1 0 1
4
1 1 0 1
4
1 1 0 1
4
1 1 0 1
4
1 1 0 1
4
1 1 0 1
4
1 1 0 1
4
1 1 0 1
16
1 1 1 1 1 1 1 1 1 1 1 1 1 1 1 0
4
1 1 0 1
8
1 1 1 1 1 1 1 0
4
1 1 0 1
32
1 1 1 1 1 1 1 1 1 1 1 1 1 1 1 1 1 1 1 1 1 1 1 1 1 1 1 1 1 1 1 0
32
1 1 1 1 1 1 1 1 1 1 1 1 1 1 1 1 1 1 1 1 1 1 1 1 1 1 1 1 1 1 1 0
4
1 1 0 1
4
1 1 0 1
32
1 1 1 1 1 1 1 1 1 1 1 1 1 1 1 1 1 1 1 1 1 1 1 1 1 1 1 1 1 1 1 0
4
1 1 0 1
4
1 1 0 1
4
1 1 0 1
4
1 1 0 1
4
1 1 0 1
4
1 1 0 1
4
1 1 0 1
32
1 1 1 1 1 1 1 1 1 1 1 1 1 1 1 1 1 1 1 1 1 1 1 1 1 1 1 1 1 1 1 0
4
1 1 0 1
4
1 1 0 1
32
1 1 1 1 1 1 1 1 1 1 1 1 1 1 1 1 1 1 1 1 1 1 1 1 1 1 1 1 1 1 1 0
8
1 1 1 1 1 1 0 1
8
1 1 1 1 1 1 0 1
8
1 1 1 1 1 1 0 1
8
1 1 1 1 1 1 0 1
8
1 1 1 1 1 1 0 1
8
1 1 1 1 1 1 0 1
8
1 1 1 1 1 1 0 1
8
1 1 1 1 1 1 0 1
8
1 1 1 1 1 1 0 1
8
1 1 1 1 1 1 0 1
4
1 1 0 1
4
1 1 0 1
4
1 1 0 1
4
1 1 0 1
4
1 1 0 1
4
1 1 0 1
4
1 1 0 1
4
1 1 0 1
4
1 1 0 1
4
1 1 0 1
4
1 1 0 1
4
1 1 0 1
4
1 1 0 1
4
1 1 0 1
4
1 1 0 1
4
1 1 0 1
4
1 1 0 1
8
1 1 1 1 1 1 0 1
8
1 1 1 1 1 1 0 1
8
1 1 1 1 1 1 0 1
8
1 1 1 1 1 1 0 1
4
1 1 0 1
4
1 1 0 1
4
1 1 0 1
4
1 1 0 1
4
1 1 0 1
4
1 1 0 1
4
1 1 0 1
4
1 1 0 1
4
1 1 0 1
4
1 1 0 1
4
1 1 0 1
4
1 1 0 1
4
1 1 0 1
8
1 1 1 1 1 1 0 1
16
1 1 1 1 1 1 1 1 1 1 1 1 1 1 0 1
16
1 1 1 1 1 1 1 1 1 1 1 1 1 1 0 1
16
1 1 1 1 1 1 1 1 1 1 1 1 1 1 0 1
16
1 1 1 1 1 1 1 1 1 1 1 1 1 1 0 1
16
1 1 1 1 1 1 1 1 1 1 1 1 1 1 0 1
16
1 1 1 1 1 1 1 1 1 1 1 1 1 1 0 1
16
1 1 1 1 1 1 1 1 1 1 1 1 1 1 0 1
16
1 1 1 1 1 1 1 1 1 1 1 1 1 1 0 1
16
1 1 1 1 1 1 1 1 1 1 1 1 1 1 0 1
16
1 1 1 1 1 1 1 1 1 1 1 1 1 1 0 1
8
1 1 1 1 1 1 0 1
4
0 1 1 1
4
0 1 1 1
4
0 1 1 1
4
0 1 1 1
4
0 1 1 1
4
0 1 1 1
4
0 1 1 1
4
0 1 1 1
4
0 1 1 1
4
0 1 1 1
4
0 1 1 1
8
0 1 1 1 1 1 1 1
4
0 1 1 1
4
0 1 1 1
4
0 1 1 1
4
0 1 1 1
4
0 1 1 1
4
0 1 1 1
4
0 1 1 1
4
0 1 1 1
4
0 1 1 1
4
0 1 1 1
4
0 1 1 1
4
0 1 1 1
4
0 1 1 1
4
0 1 1 1
4
0 1 1 1
4
0 1 1 1
4
0 1 1 1
4
0 1 1 1
4
0 1 1 1
4
0 1 1 1
4
0 1 1 1
4
0 1 1 1
4
0 1 1 1
4
0 1 1 1
4
0 1 1 1
4
0 1 1 1
4
0 1 1 1
4
0 1 1 1
4
0 1 1 1
4
0 1 1 1
4
0 1 1 1
4
0 1 1 1
4
0 1 1 1
4
0 1 1 1
4
0 1 1 1
4
0 1 1 1
4
0 1 1 1
4
0 1 1 1
4
0 1 1 1
4
0 1 1 1
4
0 1 1 1
4
0 1 1 1
4
0 1 1 1
4
0 1 1 1
4
0 1 1 1
4
0 1 1 1
4
0 1 1 1
4
0 1 1 1
4
0 1 1 1
4
0 1 1 1
4
0 1 1 1
4
0 1 1 1
4
0 1 1 1
8
0 1 1 1 1 1 1 1
4
0 1 1 1
4
0 1 1 1
4
0 1 1 1
4
0 1 1 1
4
0 1 1 1
4
0 1 1 1
4
0 1 1 1
4
0 1 1 1
4
0 1 1 1
8
0 1 1 1 1 1 1 1
4
0 1 1 1
4
0 1 1 1
4
0 1 1 1
4
0 1 1 1
4
0 1 1 1
4
0 1 1 1
4
0 1 1 1
4
0 1 1 1
4
0 1 1 1
4
0 1 1 1
4
0 1 1 1
4
0 1 1 1
4
0 1 1 1
4
0 1 1 1
8
0 1 1 1 1 1 1 1
4
0 1 1 1
8
0 1 1 1 1 1 1 1
8
0 1 1 1 1 1 1 1
8
0 1 1 1 1 1 1 1
4
0 1 1 1
8
0 1 1 1 1 1 1 1
4
0 1 1 1
4
0 1 1 1
4
0 1 1 1
4
0 1 1 1
4
0 1 1 1
4
0 1 1 1
4
0 1 1 1
4
0 1 1 1
8
0 1 1 1 1 1 1 1
8
0 1 1 1 1 1 1 1
8
0 1 1 1 1 1 1 1
8
0 1 1 1 1 1 1 1
8
0 1 1 1 1 1 1 1
8
0 1 1 1 1 1 1 1
8
0 1 1 1 1 1 1 1
8
0 1 1 1 1 1 1 1
8
0 1 1 1 1 1 1 1
8
0 1 1 1 1 1 1 1
4
0 1 1 1
4
0 1 1 1
4
0 1 1 1
4
0 1 1 1
4
0 1 1 1
4
0 1 1 1
4
0 1 1 1
4
0 1 1 1
4
0 1 1 1
4
0 1 1 1
4
0 1 1 1
4
0 1 1 1
4
0 1 1 1
4
0 1 1 1
4
0 1 1 1
4
0 1 1 1
4
0 1 1 1
4
0 1 1 1
4
0 1 1 1
4
0 1 1 1
8
0 1 1 1 1 1 1 1
8
0 1 1 1 1 1 1 1
4
0 1 1 1
8
0 1 1 1 1 1 1 1
8
0 1 1 1 1 1 1 1
8
0 1 1 1 1 1 1 1
4
0 1 1 1
4
0 1 1 1
4
0 1 1 1
4
0 1 1 1
4
0 1 1 1
4
0 1 1 1
4
0 1 1 1
4
0 1 1 1
8
0 1 1 1 1 1 1 1
8
0 1 1 1 1 1 1 1
8
0 1 1 1 1 1 1 1
8
0 1 1 1 1 1 1 1
4
0 1 1 1
4
0 1 1 1
4
0 1 1 1
4
0 1 1 1
4
0 1 1 1
4
0 1 1 1
4
0 1 1 1
4
0 1 1 1
4
0 1 1 1
4
0 1 1 1
4
0 1 1 1
4
0 1 1 1
4
0 1 1 1
4
0 1 1 1
8
0 1 1 1 1 1 1 1
8
0 1 1 1 1 1 1 1
8
0 1 1 1 1 1 1 1
8
0 1 1 1 1 1 1 1
4
0 1 1 1
4
0 1 1 1
4
0 1 1 1
4
0 1 1 1
8
0 1 1 1 1 1 1 1
8
0 1 1 1 1 1 1 1
8
0 1 1 1 1 1 1 1
8
0 1 1 1 1 1 1 1
8
0 1 1 1 1 1 1 1
4
0 1 1 1
4
0 1 1 1
4
0 1 1 1
4
0 1 1 1
4
0 1 1 1
4
0 1 1 1
4
0 1 1 1
4
0 1 1 1
4
0 1 1 1
4
0 1 1 1
4
0 1 1 1
4
0 1 1 1
4
0 1 1 1
4
0 1 1 1
4
0 1 1 1
8
0 1 1 1 1 1 1 1
4
0 1 1 1
4
0 1 1 1
4
0 1 1 1
4
0 1 1 1
4
0 1 1 1
4
0 1 1 1
4
0 1 1 1
4
0 1 1 1
8
0 1 1 1 1 1 1 1
4
0 1 1 1
4
0 1 1 1
4
0 1 1 1
4
0 1 1 1
4
0 1 1 1
4
0 1 1 1
4
0 1 1 1
4
0 1 1 1
4
0 1 1 1
4
0 1 1 1
4
0 1 1 1
4
0 1 1 1
4
0 1 1 1
4
0 1 1 1
4
0 1 1 1
4
0 1 1 1
4
0 1 1 1
4
0 1 1 1
4
0 1 1 1
4
0 1 1 1
4
0 1 1 1
4
0 1 1 1
4
0 1 1 1
4
0 1 1 1
4
0 1 1 1
4
0 1 1 1
4
0 1 1 1
4
0 1 1 1
4
0 1 1 1
4
0 1 1 1
4
0 1 1 1
8
0 1 1 1 1 1 1 1
4
0 1 1 1
4
0 1 1 1
8
0 1 1 1 1 1 1 1
4
0 1 1 1
4
0 1 1 1
4
0 1 1 1
8
0 1 1 1 1 1 1 1
4
0 1 1 1
4
0 1 1 1
4
0 1 1 1
4
0 1 1 1
8
0 1 1 1 1 1 1 1
4
0 1 1 1
4
0 1 1 1
8
0 1 1 1 1 1 1 1
4
0 1 1 1
4
0 1 1 1
8
0 1 1 1 1 1 1 1
4
0 1 1 1
4
0 1 1 1
4
0 1 1 1
8
0 1 1 1 1 1 1 1
4
0 1 1 1
4
0 1 1 1
4
0 1 1 1
4
0 1 1 1
4
0 1 1 1
4
0 1 1 1
4
0 1 1 1
4
0 1 1 1
8
0 1 1 1 1 1 1 1
4
0 1 1 1
8
0 1 1 1 1 1 1 1
4
0 1 1 1
8
0 1 1 1 1 1 1 1
4
0 1 1 1
8
0 1 1 1 1 1 1 1
4
0 1 1 1
8
0 1 1 1 1 1 1 1
4
0 1 1 1
8
0 1 1 1 1 1 1 1
4
0 1 1 1
8
0 1 1 1 1 1 1 1
4
0 1 1 1
8
0 1 1 1 1 1 1 1
8
0 1 1 1 1 1 1 1
4
0 1 1 1
4
0 1 1 1
4
0 1 1 1
4
0 1 1 1
4
0 1 1 1
4
0 1 1 1
4
0 1 1 1
4
0 1 1 1
4
0 1 1 1
4
0 1 1 1
4
0 1 1 1
4
0 1 1 1
4
0 1 1 1
4
0 1 1 1
4
0 1 1 1
8
0 1 1 1 1 1 1 1
8
0 1 1 1 1 1 1 1
8
0 1 1 1 1 1 1 1
4
0 1 1 1
4
0 1 1 1
4
0 1 1 1
4
0 1 1 1
4
0 1 1 1
8
0 1 1 1 1 1 1 1
4
0 1 1 1
4
0 1 1 1
4
0 1 1 1
4
0 1 1 1
4
0 1 1 1
4
0 1 1 1
4
0 1 1 1
4
0 1 1 1
4
0 1 1 1
8
0 1 1 1 1 1 1 1
8
0 1 1 1 1 1 1 1
8
0 1 1 1 1 1 1 1
4
0 1 1 1
4
0 1 1 1
4
0 1 1 1
4
0 1 1 1
4
0 1 1 1
4
0 1 1 1
4
0 1 1 1
4
0 1 1 1
4
0 1 1 1
4
0 1 1 1
4
0 1 1 1
4
0 1 1 1
4
0 1 1 1
4
0 1 1 1
4
0 1 1 1
4
0 1 1 1
4
0 1 1 1
4
0 1 1 1
4
0 1 1 1
